11111111111111111111
11111111111111111111
11111111111111111111
11111111000001111111
11111111000001111111
11111111000001111111
11111111000001111111
11111111111111111111
11111111111111111111
11111111111111111111
11111111111111111111
11111111111111111111
11111111111111111111
11111111111111111111
11111111111111111111
11111111111111111111
9 4
4
0 3 4 10
3 0 7 10
2 1 10 10
1 1 13 10